Route #1: 51 27 5 8 29 10 44
Route #2: 47 37 35 33 7 43
Route #3: 16 9 46 13 34 32 38 48 2
Route #4: 26 19 15 49 17 22 50 12 45 4
Route #5: 23 39 14 21 11 28 24 31 3
Route #6: 36 1 18 30 20 42 40
Route #7: 41 25 6
Cost 757